p cnf 138 499
-3 -1 0
-3 -2 0
1 2 3 0
-4 -5 0
4 -5 0
-6 -1 0
-6 -5 0
1 5 6 0
9 -7 0
9 -8 0
7 8 -9 0
10 2 0
10 -9 0
-2 9 -10 0
-11 6 0
-11 -10 0
-6 10 11 0
12 3 0
12 -11 0
-3 11 -12 0
13 -3 0
13 12 0
3 -12 -13 0
15 -14 0
15 1 0
14 -1 -15 0
16 -13 0
16 -15 0
13 15 -16 0
-17 -4 0
-17 7 0
4 -7 17 0
18 4 -19 0
-18 -4 -19 0
18 -4 19 0
-18 4 19 0
19 -4 -20 0
-19 4 -20 0
19 4 20 0
-19 -4 20 0
-21 -17 0
-21 -20 0
17 20 21 0
-22 6 0
-22 10 0
-6 -10 22 0
23 15 0
23 -22 0
-15 22 -23 0
-21 23 -24 0
21 -23 -24 0
-21 -23 24 0
21 23 24 0
26 -25 0
26 5 0
25 -5 -26 0
-24 26 -27 0
24 -26 -27 0
-24 -26 27 0
24 26 27 0
-16 27 -28 0
16 -27 -28 0
-16 -27 28 0
16 27 28 0
-31 -29 0
-31 -30 0
29 30 31 0
-28 31 -32 0
28 -31 -32 0
-28 -31 32 0
28 31 32 0
-22 24 -33 0
22 -24 -33 0
-22 -24 33 0
22 24 33 0
-34 19 0
-34 8 0
-19 -8 34 0
34 -35 -36 0
-34 35 -36 0
34 35 36 0
-34 -35 36 0
37 4 0
37 9 0
-4 -9 -37 0
38 1 0
38 37 0
-1 -37 -38 0
36 38 -39 0
-36 -38 -39 0
36 -38 39 0
-36 38 39 0
7 6 -40 0
-7 -6 -40 0
7 -6 40 0
-7 6 40 0
-41 24 0
-41 26 0
-24 -26 41 0
-42 40 0
-42 -41 0
-40 41 42 0
-39 -42 -43 0
39 42 -43 0
-39 42 43 0
39 -42 43 0
44 33 0
44 -43 0
-33 43 -44 0
45 5 0
45 -2 0
-5 2 -45 0
-46 45 0
-46 -45 0
-47 -9 0
-47 -37 0
9 37 47 0
-48 36 0
-48 47 0
-36 -47 48 0
-19 48 -49 0
19 -48 -49 0
-19 -48 49 0
19 48 49 0
-50 49 0
-50 -30 0
-49 30 50 0
46 50 -51 0
-46 -50 -51 0
46 -50 51 0
-46 50 51 0
-20 21 -52 0
20 -21 -52 0
-20 -21 52 0
20 21 52 0
52 -36 -53 0
-52 36 -53 0
52 36 53 0
-52 -36 53 0
-55 53 0
-55 54 0
-53 -54 55 0
-56 51 0
-56 55 0
-51 -55 56 0
-57 -44 0
-57 56 0
44 -56 57 0
32 57 -58 0
-32 -57 -58 0
32 -57 58 0
-32 57 58 0
-60 6 0
-60 -59 0
-6 59 60 0
61 26 0
61 30 0
-26 -30 -61 0
62 26 0
62 48 0
-26 -48 -62 0
63 5 0
63 47 0
-5 -47 -63 0
-64 62 0
-64 63 0
-62 -63 64 0
-61 -64 -65 0
61 64 -65 0
-61 64 65 0
61 -64 65 0
35 65 -66 0
-35 -65 -66 0
35 -65 66 0
-35 65 66 0
67 -13 0
67 -66 0
13 66 -67 0
-60 -67 -68 0
60 67 -68 0
-60 67 68 0
60 -67 68 0
-58 68 -69 0
58 -68 -69 0
-58 -68 69 0
58 68 69 0
70 -64 0
70 35 0
64 -35 -70 0
-70 62 -71 0
70 -62 -71 0
-70 -62 71 0
70 62 71 0
-12 6 -72 0
12 -6 -72 0
-12 -6 72 0
12 6 72 0
-71 -72 -73 0
71 72 -73 0
-71 72 73 0
71 -72 73 0
-69 73 -74 0
69 -73 -74 0
-69 -73 74 0
69 73 74 0
75 59 0
75 7 0
-59 -7 -75 0
76 4 0
76 29 0
-4 -29 -76 0
-77 -49 0
-77 76 0
49 -76 77 0
21 35 -78 0
-21 -35 -78 0
21 -35 78 0
-21 35 78 0
-77 -78 -79 0
77 78 -79 0
-77 78 79 0
77 -78 79 0
80 75 0
80 -79 0
-75 79 -80 0
-81 19 0
-81 -11 0
-19 11 81 0
-82 12 0
-82 81 0
-12 -81 82 0
83 -76 0
83 -8 0
76 8 -83 0
-82 83 -84 0
82 -83 -84 0
-82 -83 84 0
82 83 84 0
85 -66 0
85 25 0
66 -25 -85 0
-84 -85 -86 0
84 85 -86 0
-84 85 86 0
84 -85 86 0
87 -61 0
87 14 0
61 -14 -87 0
88 59 0
88 -87 0
-59 87 -88 0
89 86 0
89 88 0
-86 -88 -89 0
90 -1 0
90 -22 0
1 22 -90 0
-9 8 -91 0
9 -8 -91 0
-9 -8 91 0
9 8 91 0
-92 90 0
-92 -91 0
-90 91 92 0
93 18 0
93 10 0
-18 -10 -93 0
94 -92 0
94 -93 0
92 93 -94 0
-95 -89 0
-95 94 0
89 -94 95 0
80 -95 -96 0
-80 95 -96 0
80 95 96 0
-80 -95 96 0
-97 -26 0
-97 -11 0
26 11 97 0
-35 36 -98 0
35 -36 -98 0
-35 -36 98 0
35 36 98 0
97 98 -99 0
-97 -98 -99 0
97 -98 99 0
-97 98 99 0
2 -30 -100 0
-2 30 -100 0
2 30 100 0
-2 -30 100 0
100 -12 -101 0
-100 12 -101 0
100 12 101 0
-100 -12 101 0
11 87 -102 0
-11 -87 -102 0
11 -87 102 0
-11 87 102 0
-103 101 0
-103 -102 0
-101 102 103 0
104 -99 0
104 -103 0
99 103 -104 0
-105 -22 0
-105 -3 0
22 3 105 0
-106 -3 0
-106 9 0
3 -9 106 0
34 1 -107 0
-34 -1 -107 0
34 -1 107 0
-34 1 107 0
108 -107 0
108 87 0
107 -87 -108 0
109 107 0
109 -108 0
-107 108 -109 0
110 70 0
110 -90 0
-70 90 -110 0
111 -109 0
111 -110 0
109 110 -111 0
112 87 0
112 -36 0
-87 36 -112 0
-111 112 -113 0
111 -112 -113 0
-111 -112 113 0
111 112 113 0
106 -113 -114 0
-106 113 -114 0
106 113 114 0
-106 -113 114 0
-115 105 0
-115 114 0
-105 -114 115 0
-116 -35 0
-116 25 0
35 -25 116 0
117 -116 0
117 64 0
116 -64 -117 0
-118 -115 0
-118 -117 0
115 117 118 0
-119 -54 0
-119 34 0
54 -34 119 0
-119 76 -120 0
119 -76 -120 0
-119 -76 120 0
119 76 120 0
121 25 0
121 15 0
-25 -15 -121 0
122 -121 0
122 -54 0
121 54 -122 0
122 -59 -123 0
-122 59 -123 0
122 59 123 0
-122 -59 123 0
-124 -120 0
-124 -123 0
120 123 124 0
-29 -5 -126 0
29 5 -126 0
-29 5 126 0
29 -5 126 0
6 36 -127 0
-6 -36 -127 0
6 -36 127 0
-6 36 127 0
126 127 -128 0
-126 -127 -128 0
126 -127 128 0
-126 127 128 0
129 125 0
129 -128 0
-125 128 -129 0
130 -124 0
130 129 0
124 -129 -130 0
118 -130 -131 0
-118 130 -131 0
118 130 131 0
-118 -130 131 0
-132 104 0
-132 131 0
-104 -131 132 0
-133 13 0
-133 108 0
-13 -108 133 0
-35 -25 -134 0
35 25 -134 0
-35 25 134 0
35 -25 134 0
135 133 0
135 -134 0
-133 134 -135 0
-136 -132 0
-136 -135 0
132 135 136 0
-137 96 0
-137 -136 0
-96 136 137 0
-138 74 0
-138 137 0
-74 -137 138 0
62 -84 0
6 -52 136 -82 106 0
-122 -82 32 100 120 6 0
-76 104 79 -34 67 0
-85 -69 -93 25 0
-32 -10 -86 47 100 0
-102 -136 0
-65 -58 8 0
-104 -90 13 -87 0
-64 -125 38 -54 -72 97 0
-84 -76 71 -123 0
-66 129 0
-106 46 60 0
43 78 0
115 -63 20 0
-76 114 105 -28 0
-132 -44 -78 -23 -74 0
-29 50 105 63 -4 104 0
24 -16 0
31 -82 15 0
-71 -28 4 60 0
-116 -58 44 40 135 0
-13 104 -20 28 65 0
-121 -129 61 101 13 -18 0
89 15 -35 -132 -76 0
-13 11 -123 0
138 23 5 0
11 -16 -27 -31 57 0
43 -95 -88 -120 -137 21 0
14 42 0
-81 129 116 37 0
-44 -105 -65 -70 -53 -131 0
91 69 -40 -138 -66 0
62 137 134 -64 -86 61 0
111 122 -134 -136 10 -95 0
51 -92 132 -118 -133 0
88 90 50 -55 0
13 -31 -18 -29 0
112 14 -12 -42 0
-122 -65 28 0
15 -2 -97 105 88 -45 0
112 -61 33 -31 0
-2 43 -11 -52 49 76 0
-121 61 -4 37 0
-84 -91 138 -30 0
37 -40 -111 0
-100 91 134 0
23 -40 0
8 122 -75 -5 0
118 110 -122 -38 0
15 87 -77 -129 86 68 0
96 -86 -118 71 0
82 101 -132 0
-95 -118 103 0
114 -79 -52 51 -14 -69 0
-89 4 5 0
103 69 14 31 0
-73 47 -38 -75 -135 -4 0
-83 -98 0
39 -45 90 -117 0
-103 -63 0
-68 -60 -44 11 0
101 -73 55 0
16 -41 0
95 34 67 -117 -113 0
117 -66 -135 5 -30 90 0
-56 15 -41 69 -59 36 0
13 21 79 -37 130 -27 0
42 -68 0
-41 -105 -77 0
-116 -39 -122 -40 0
-111 134 0
5 82 53 -67 -12 100 0
52 93 90 75 0
-76 67 60 108 -85 0
-110 13 0
-41 -43 -126 88 0
-34 -56 -42 -64 0
-100 -44 122 129 0
21 -100 -92 -103 30 0
74 60 132 -107 -52 -64 0
-19 76 0
-23 13 0
138 0
